    36 
     2
    25    -36 
  1.00  1.00  1.00  1.00  1.00  1.00  1.00  1.00  1.00  1.00  1.00  1.00  1.00  1.00  1.00  1.00  1.00  1.00  1.00  1.00  1.00  1.00  1.00  1.00  1.00  1.00  1.00  1.00  1.00  1.00  1.00  1.00  1.00  1.00  1.00  1.00
    0    1    1    1    -0.5000000000
    0    1    1    2    0.0000000000
    0    1    1    3    0.0000000000
    0    1    1    4    0.0000000000
    0    1    1    5    0.0000000000
    0    1    1    6    0.0000000000
    0    1    1    7    0.0000000000
    0    1    1    8    0.0000000000
    0    1    1    9    0.0000000000
    0    1    1   10    0.0000000000
    0    1    1   11    0.0000000000
    0    1    1   12    0.0000000000
    0    1    1   13    0.0000000000
    0    1    1   14    0.0000000000
    0    1    1   15    0.0000000000
    0    1    1   16    0.0000000000
    0    1    1   17    0.0000000000
    0    1    1   18    0.0000000000
    0    1    1   19    0.0000000000
    0    1    1   20    0.0000000000
    0    1    1   21    0.0000000000
    0    1    1   22    0.0000000000
    0    1    1   23    1.0000000000
    0    1    1   24    0.0000000000
    0    1    1   25    0.0000000000
    1    1    2    2    1.0000000000
    1    2    1    1    1.0000000000
    2    1    4    4    0.6400000000
    2    1    4    5    0.3200000000
    2    1    5    5    0.1600000000
    2    2    2    2    1.0000000000
    3    1    3    3    4.0000000000
    3    1    3    5   -4.0000000000
    3    1    5    5    4.0000000000
    3    2    3    3    1.0000000000
    4    1    2    2    0.6400000000
    4    1    2    3   -0.3200000000
    4    1    3    3    0.1600000000
    4    2    4    4    1.0000000000
    5    1    4    4    1.0000000000
    5    2    5    5    1.0000000000
    6    1    6    6    0.6400000000
    6    1    6    7    0.3200000000
    6    1    7    7    0.1600000000
    6    2    6    6    1.0000000000
    7    1    5    5    4.0000000000
    7    1    5    7   -4.0000000000
    7    1    7    7    4.0000000000
    7    2    7    7    1.0000000000
    8    1    4    4    0.6400000000
    8    1    4    5   -0.3200000000
    8    1    5    5    0.1600000000
    8    2    8    8    1.0000000000
    9    1    2    2    1.0000000000
    9    1    2    8   -1.0000000000
    9    1    8    8    1.0000000000
    9    2    9    9    1.0000000000
   10    1    2    2    0.6400000000
   10    1    2    3    0.3200000000
   10    1    3    3    0.1600000000
   10    1    2   10   -0.6400000000
   10    1    3   10   -0.3200000000
   10    1   10   10    0.6400000000
   10    1    2   11   -0.3200000000
   10    1    3   11   -0.1600000000
   10    1   10   11    0.3200000000
   10    1   11   11    0.1600000000
   10    2   10   10    1.0000000000
   11    1    9    9    4.0000000000
   11    1    9   11   -4.0000000000
   11    1   11   11    4.0000000000
   11    2   11   11    1.0000000000
   12    1    4    4    0.6400000000
   12    1    4    5   -0.3200000000
   12    1    5    5    0.1600000000
   12    1    4    8   -0.6400000000
   12    1    5    8    0.3200000000
   12    1    8    8    0.6400000000
   12    1    4    9    0.3200000000
   12    1    5    9   -0.1600000000
   12    1    8    9   -0.3200000000
   12    1    9    9    0.1600000000
   12    2   12   12    1.0000000000
   13    1    4    4    1.0000000000
   13    1    4   10   -1.0000000000
   13    1   10   10    1.0000000000
   13    2   13   13    1.0000000000
   14    1    4    4    0.6400000000
   14    1    4    5    0.3200000000
   14    1    5    5    0.1600000000
   14    1    4   12   -0.6400000000
   14    1    5   12   -0.3200000000
   14    1   12   12    0.6400000000
   14    1    4   13   -0.3200000000
   14    1    5   13   -0.1600000000
   14    1   12   13    0.3200000000
   14    1   13   13    0.1600000000
   14    2   14   14    1.0000000000
   15    1   11   11    4.0000000000
   15    1   11   13   -4.0000000000
   15    1   13   13    4.0000000000
   15    2   15   15    1.0000000000
   16    1    6    6    0.6400000000
   16    1    6    7   -0.3200000000
   16    1    7    7    0.1600000000
   16    1    6   10   -0.6400000000
   16    1    7   10    0.3200000000
   16    1   10   10    0.6400000000
   16    1    6   11    0.3200000000
   16    1    7   11   -0.1600000000
   16    1   10   11   -0.3200000000
   16    1   11   11    0.1600000000
   16    2   16   16    1.0000000000
   17    1    8    8    1.0000000000
   17    1    8   14   -1.0000000000
   17    1   14   14    1.0000000000
   17    2   17   17    1.0000000000
   18    1    8    8    0.6400000000
   18    1    8    9    0.3200000000
   18    1    9    9    0.1600000000
   18    1    8   16   -0.6400000000
   18    1    9   16   -0.3200000000
   18    1   16   16    0.6400000000
   18    1    8   17   -0.3200000000
   18    1    9   17   -0.1600000000
   18    1   16   17    0.3200000000
   18    1   17   17    0.1600000000
   18    2   18   18    1.0000000000
   19    1   15   15    4.0000000000
   19    1   15   17   -4.0000000000
   19    1   17   17    4.0000000000
   19    2   19   19    1.0000000000
   20    1   10   10    0.6400000000
   20    1   10   11   -0.3200000000
   20    1   11   11    0.1600000000
   20    1   10   14   -0.6400000000
   20    1   11   14    0.3200000000
   20    1   14   14    0.6400000000
   20    1   10   15    0.3200000000
   20    1   11   15   -0.1600000000
   20    1   14   15   -0.3200000000
   20    1   15   15    0.1600000000
   20    2   20   20    1.0000000000
   21    1   10   10    1.0000000000
   21    1   10   16   -1.0000000000
   21    1   16   16    1.0000000000
   21    2   21   21    1.0000000000
   22    1   10   10    0.6400000000
   22    1   10   11    0.3200000000
   22    1   11   11    0.1600000000
   22    1   10   18   -0.6400000000
   22    1   11   18   -0.3200000000
   22    1   18   18    0.6400000000
   22    1   10   19   -0.3200000000
   22    1   11   19   -0.1600000000
   22    1   18   19    0.3200000000
   22    1   19   19    0.1600000000
   22    2   22   22    1.0000000000
   23    1   17   17    4.0000000000
   23    1   17   19   -4.0000000000
   23    1   19   19    4.0000000000
   23    2   23   23    1.0000000000
   24    1   12   12    0.6400000000
   24    1   12   13   -0.3200000000
   24    1   13   13    0.1600000000
   24    1   12   16   -0.6400000000
   24    1   13   16    0.3200000000
   24    1   16   16    0.6400000000
   24    1   12   17    0.3200000000
   24    1   13   17   -0.1600000000
   24    1   16   17   -0.3200000000
   24    1   17   17    0.1600000000
   24    2   24   24    1.0000000000
   25    1   14   14    1.0000000000
   25    1   14   20   -1.0000000000
   25    1   20   20    1.0000000000
   25    2   25   25    1.0000000000
   26    1   14   14    0.6400000000
   26    1   14   15    0.3200000000
   26    1   15   15    0.1600000000
   26    1   14   22   -0.6400000000
   26    1   15   22   -0.3200000000
   26    1   22   22    0.6400000000
   26    1   14   23   -0.3200000000
   26    1   15   23   -0.1600000000
   26    1   22   23    0.3200000000
   26    1   23   23    0.1600000000
   26    2   26   26    1.0000000000
   27    1   21   21    4.0000000000
   27    1   21   23   -4.0000000000
   27    1   23   23    4.0000000000
   27    2   27   27    1.0000000000
   28    1   16   16    0.6400000000
   28    1   16   17   -0.3200000000
   28    1   17   17    0.1600000000
   28    1   16   20   -0.6400000000
   28    1   17   20    0.3200000000
   28    1   20   20    0.6400000000
   28    1   16   21    0.3200000000
   28    1   17   21   -0.1600000000
   28    1   20   21   -0.3200000000
   28    1   21   21    0.1600000000
   28    2   28   28    1.0000000000
   29    1   16   16    1.0000000000
   29    1   16   22   -1.0000000000
   29    1   22   22    1.0000000000
   29    2   29   29    1.0000000000
   30    1   16   16    0.6400000000
   30    1   16   17    0.3200000000
   30    1   17   17    0.1600000000
   30    1   16   24   -0.6400000000
   30    1   17   24   -0.3200000000
   30    1   24   24    0.6400000000
   30    1   16   25   -0.3200000000
   30    1   17   25   -0.1600000000
   30    1   24   25    0.3200000000
   30    1   25   25    0.1600000000
   30    2   30   30    1.0000000000
   31    1   23   23    4.0000000000
   31    1   23   25   -4.0000000000
   31    1   25   25    4.0000000000
   31    2   31   31    1.0000000000
   32    1   18   18    0.6400000000
   32    1   18   19   -0.3200000000
   32    1   19   19    0.1600000000
   32    1   18   22   -0.6400000000
   32    1   19   22    0.3200000000
   32    1   22   22    0.6400000000
   32    1   18   23    0.3200000000
   32    1   19   23   -0.1600000000
   32    1   22   23   -0.3200000000
   32    1   23   23    0.1600000000
   32    2   32   32    1.0000000000
   33    1    6    6    1.0000000000
   33    2   33   33    1.0000000000
   34    1    6    6    1.0000000000
   34    1    6   12   -1.0000000000
   34    1   12   12    1.0000000000
   34    2   34   34    1.0000000000
   35    1   12   12    1.0000000000
   35    1   12   18   -1.0000000000
   35    1   18   18    1.0000000000
   35    2   35   35    1.0000000000
   36    1   18   18    1.0000000000
   36    1   18   24   -1.0000000000
   36    1   24   24    1.0000000000
   36    2   36   36    1.0000000000
